# Solution for model GasLib-40
# Objective value = 4.3602929082041335e+01
loadshed[innode_1] 0
loadshed[innode_2] 0
loadshed[innode_3] 0
loadshed[innode_4] 0
loadshed[innode_5] 0
loadshed[innode_6] 0
loadshed[innode_7] 0
loadshed[innode_8] 0
loadshed[source_1] -1.4744854072312941e-01
loadshed[source_2] 1.9618388315192903e-01
loadshed[source_3] 2.2707497111447761e-01
loadshed[sink_1] 0
loadshed[sink_2] 0
loadshed[sink_3] 0
loadshed[sink_4] 0
loadshed[sink_5] 0
loadshed[sink_6] 0
loadshed[sink_7] 0
loadshed[sink_8] 0
loadshed[sink_9] 0
loadshed[sink_10] 0
loadshed[sink_11] 0
loadshed[sink_12] 1
loadshed[sink_13] 0
loadshed[sink_14] 0
loadshed[sink_15] 0
loadshed[sink_16] 0
loadshed[sink_17] 0
loadshed[sink_18] 0
loadshed[sink_19] 0
loadshed[sink_20] 0
loadshed[sink_21] 1
loadshed[sink_22] 0
loadshed[sink_23] 0
loadshed[sink_24] 6.6616636425220888e-01
loadshed[sink_25] 0
loadshed[sink_26] 0
loadshed[sink_27] 0
loadshed[sink_28] 0
loadshed[sink_29] 0
flow[source_1,sink_3] 1.8140045853862529e+02
flow[innode_1,sink_16] 1.6354166666666970e+01
flow[innode_6,sink_13] -7.7127658512420041e+00
flow[sink_13,sink_14] -2.4066932517908672e+01
flow[sink_14,sink_10] -4.0421099184575340e+01
flow[sink_25,sink_26] 1.2240576205854877e+02
flow[sink_26,sink_9] 1.6354166666669244e+01
flow[sink_9,sink_18] 0
flow[sink_26,sink_4] 8.9697428725212859e+01
flow[sink_4,sink_20] -1.5259987291562071e+01
flow[sink_18,sink_6] -1.6354166666667879e+01
flow[sink_25,innode_8] -1.4869212520528893e+02
flow[sink_6,sink_7] -6.5416666666666671e+01
flow[sink_6,sink_22] 3.2708333333333641e+01
flow[sink_7,sink_24] 5.45957091795867
flow[sink_22,sink_1] 1.6354166666666970e+01
flow[sink_24,sink_21] 0
flow[sink_21,sink_12] 0
flow[sink_7,sink_5] -8.7230404251293521e+01
flow[sink_5,sink_17] -1.0358457091796019e+02
flow[sink_17,sink_4] -8.8603249350108271e+01
flow[sink_17,sink_8] -3.1335488234518582e+01
flow[sink_3,sink_23] 16.3541666666697
flow[sink_8,sink_20] -4.7689654901185250e+01
flow[sink_25,sink_20] 79.303808859414
flow[sink_25,sink_15] -6.1658846528098323e+01
flow[sink_15,sink_29] 0
flow[sink_29,sink_28] 1.6354166666667879e+01
flow[sink_29,sink_2] 9.4367179861431666e+01
flow[sink_2,sink_15] 78.013013194765
flow[sink_29,innode_7] -1.2707551319476622e+02
flow[innode_4,sink_19] 4.7491114663258827e+01
flow[sink_19,innode_3] 43.6676186920061
flow[innode_4,innode_5] 7.4700817854650325e+01
flow[sink_27,innode_5] -7.4700817854650325e+01
flow[sink_27,sink_19] 5.8346651187983660e+01
flow[sink_10,sink_11] 3.2708333333333641e+01
flow[sink_10,innode_2] -4.5815980492569544e+01
flow[sink_10,innode_3] -43.6676186920061
flow[innode_6,sink_25] 7.7127658512420041e+00
flow[sink_11,innode_1] 1.6354166666666970e+01
flow[sink_19,innode_2] 4.5815980492569544e+01
flow[source_3,innode_4] 1.2219193251790915e+02
flow[source_2,innode_7] 1.2707551319476622e+02
flow[sink_3,innode_8] 1.4869212520528893e+02
pressure[innode_1] 7.6515998834108871e+01
pressure[innode_2] 7.9089263936941535e+01
pressure[innode_3] 7.8992566940169482e+01
pressure[innode_4] 81.01325
pressure[innode_5] 8.0961866838493250e+01
pressure[innode_6] 7.4670249892401571e+01
pressure[innode_7] 81.01325
pressure[innode_8] 80.4068975645923
pressure[source_1] 81.01325
pressure[source_2] 81.01325
pressure[source_3] 81.01325
pressure[sink_1] 4.2649593881896308e+00
pressure[sink_2] 7.5224050674078939e+01
pressure[sink_3] 80.4068975645923
pressure[sink_4] 5.4644920720103030e+01
pressure[sink_5] 4.3542494887521329e+01
pressure[sink_6] 6.3660369985770044e+00
pressure[sink_7] 7.2640519021771954e+00
pressure[sink_8] 5.2441166068810546e+01
pressure[sink_9] 6.5070444871593182e+01
pressure[sink_10] 7.6667700141712416e+01
pressure[sink_11] 7.6515998834108871e+01
pressure[sink_12] 1.01325
pressure[sink_13] 7.4712769081616557e+01
pressure[sink_14] 7.4755838907406712e+01
pressure[sink_15] 7.4969355379789192e+01
pressure[sink_16] 7.5494348999291191e+01
pressure[sink_17] 5.1258796690125564e+01
pressure[sink_18] 5.9293320558237648e+00
pressure[sink_19] 7.9089263936941535e+01
pressure[sink_20] 5.5764464342880395e+01
pressure[sink_21] 1.01325
pressure[sink_22] 5.3287285305446410e+00
pressure[sink_23] 8.0242179552932512e+01
pressure[sink_24] 1.01325
pressure[sink_25] 7.4670249892401571e+01
pressure[sink_26] 66.0492839555356
pressure[sink_27] 8.0341988082569259e+01
pressure[sink_28] 7.7319195566173818e+01
pressure[sink_29] 77.614477839791
interdiction[source_1,sink_3] 0
interdiction[innode_1,sink_16] 0
interdiction[innode_6,sink_13] 0
interdiction[sink_13,sink_14] 0
interdiction[sink_14,sink_10] 0
interdiction[sink_25,sink_26] 0
interdiction[sink_26,sink_9] 0
interdiction[sink_9,sink_18] 1
interdiction[sink_26,sink_4] 0
interdiction[sink_4,sink_20] 0
interdiction[sink_18,sink_6] 0
interdiction[sink_25,innode_8] 0
interdiction[sink_6,sink_7] 0
interdiction[sink_6,sink_22] 0
interdiction[sink_7,sink_24] 0
interdiction[sink_22,sink_1] 0
interdiction[sink_24,sink_21] 0
interdiction[sink_21,sink_12] 0
interdiction[sink_7,sink_5] 0
interdiction[sink_5,sink_17] 0
interdiction[sink_17,sink_4] 0
interdiction[sink_17,sink_8] 0
interdiction[sink_3,sink_23] 0
interdiction[sink_8,sink_20] 0
interdiction[sink_25,sink_20] 0
interdiction[sink_25,sink_15] 0
interdiction[sink_15,sink_29] 1
interdiction[sink_29,sink_28] 0
interdiction[sink_29,sink_2] 0
interdiction[sink_2,sink_15] 0
interdiction[sink_29,innode_7] 0
interdiction[innode_4,sink_19] 0
interdiction[sink_19,innode_3] 0
interdiction[innode_4,innode_5] 0
interdiction[sink_27,innode_5] 0
interdiction[sink_27,sink_19] 0
interdiction[sink_10,sink_11] 0
interdiction[sink_10,innode_2] 0
interdiction[sink_10,innode_3] 0
interdiction[innode_6,sink_25] 0
interdiction[sink_11,innode_1] 0
interdiction[sink_19,innode_2] 0
interdiction[source_3,innode_4] 0
interdiction[source_2,innode_7] 0
interdiction[sink_3,innode_8] 0
WCcheckFlow[source_1,sink_3] 39
WCcheckFlow[innode_1,sink_16] 1
WCcheckFlow[innode_6,sink_13] 13
WCcheckFlow[sink_13,sink_14] 12
WCcheckFlow[sink_14,sink_10] 11
WCcheckFlow[sink_25,sink_26] 15
WCcheckFlow[sink_26,sink_9] 1
WCcheckFlow[sink_9,sink_18] 0
WCcheckFlow[sink_26,sink_4] 13
WCcheckFlow[sink_4,sink_20] 1
WCcheckFlow[sink_18,sink_6] -1
WCcheckFlow[sink_25,innode_8] -36
WCcheckFlow[sink_6,sink_7] -4
WCcheckFlow[sink_6,sink_22] 2
WCcheckFlow[sink_7,sink_24] 3
WCcheckFlow[sink_22,sink_1] 1
WCcheckFlow[sink_24,sink_21] 2
WCcheckFlow[sink_21,sink_12] 1
WCcheckFlow[sink_7,sink_5] -8
WCcheckFlow[sink_5,sink_17] -9
WCcheckFlow[sink_17,sink_4] -11
WCcheckFlow[sink_17,sink_8] 1
WCcheckFlow[sink_3,sink_23] 1
WCcheckFlow[sink_8,sink_20] 0
WCcheckFlow[sink_25,sink_20] 0
WCcheckFlow[sink_25,sink_15] 6
WCcheckFlow[sink_15,sink_29] 0
WCcheckFlow[sink_29,sink_28] 1
WCcheckFlow[sink_29,sink_2] -4
WCcheckFlow[sink_2,sink_15] -5
WCcheckFlow[sink_29,innode_7] 2
WCcheckFlow[innode_4,sink_19] -4
WCcheckFlow[sink_19,innode_3] -5
WCcheckFlow[innode_4,innode_5] 2
WCcheckFlow[sink_27,innode_5] -1
WCcheckFlow[sink_27,sink_19] 0
WCcheckFlow[sink_10,sink_11] 3
WCcheckFlow[sink_10,innode_2] 1
WCcheckFlow[sink_10,innode_3] 6
WCcheckFlow[innode_6,sink_25] -14
WCcheckFlow[sink_11,innode_1] 2
WCcheckFlow[sink_19,innode_2] 0
WCcheckFlow[source_3,innode_4] -1
WCcheckFlow[source_2,innode_7] -1
WCcheckFlow[sink_3,innode_8] 37
